NAME: A-n54-k7
CAPACITY: 100
OPTIMAL: 1167
1 61 5 0
2 85 53 24
3 17 57 9
4 49 93 15
5 69 11 17
6 87 15  2
7 49 39 19
8 87 23 10
9 19 83 17
10 69 87 20
11 69 43 16
12 49 67 8
13 17 61 12
14 45 61 3
15 21 53 23
16 71 37 4
17 53 23 23
18 77 63 20
19 89 7 2
20 21 83 19
21 77 25 2
22 85 95 23
23 43 93 23
24 75 25 5
25 1 43 12
26 7 7 15
27 81 69 9
28 23 57 13
29 81 15 18
30 77 35 16
31 49 3 7
32 21 93 6
33 41 37 2
34 71 91 8
35 31 13 2
36 69 33 2
37 91 47 4
38 13 69 13
39 65 75 18
40 91 27 9
41 9 85 19
42 15 19 3
43 7 37 14
44 61 11 19
45 59 83 21
46 85 69 4
47 15 29 6
48 1 13 22
49 1 83 13
50 85 31 10
51 95 25 18
52 5 33 5
53 51 11 9
54 51 85 36